resource/single.tsp
NAME : single
TYPE : ATSP
DIMENSION : 6
EDGE_WEIGHT_TYPE : EXPLICIT
EDGE_WEIGHT_FORMAT : FULL_MATRIX
EDGE_WEIGHT_SECTION
0 159 82 299 82 297 
0 0 157 170 153 286 
0 157 0 272 83 274 
0 170 272 0 258 296 
0 153 83 258 0 256 
0 286 274 296 256 0 
EOF