resource/single.txt
NAME : single.784.tour
COMMENT : Length = 784
COMMENT : Found by LKH [Keld Helsgaun] Fri Jun 17 02:50:46 2022
TYPE : TOUR
DIMENSION : 6
TOUR_SECTION
1
3
5
2
4
6
-1
EOF
